41
1 0 4
2 0 19
2 1 25
3 0 10
3 1 19
3 2 43
4 0 55
4 1 31
4 2 6
4 3 16
5 0 64
5 1 17
5 2 48
5 3 28
5 4 12
6 0 55
6 1 50
6 2 68
6 3 48
6 4 53
6 5 26
7 0 35
7 1 39
7 2 7
7 3 23
7 4 43
7 5 64
7 6 53
8 0 51
8 1 15
8 2 52
8 3 23
8 4 17
8 5 50
8 6 33
8 7 48
9 0 17
9 1 56
9 2 24
9 3 29
9 4 35
9 5 33
9 6 30
9 7 41
9 8 10
10 0 61
10 1 36
10 2 19
10 3 21
10 4 64
10 5 24
10 6 48
10 7 13
10 8 2
10 9 10
11 0 59
11 1 32
11 2 48
11 3 3
11 4 26
11 5 50
11 6 12
11 7 6
11 8 33
11 9 63
11 10 45
12 0 62
12 1 43
12 2 59
12 3 25
12 4 5
12 5 8
12 6 8
12 7 17
12 8 1
12 9 46
12 10 66
12 11 10
13 0 44
13 1 67
13 2 18
13 3 49
13 4 34
13 5 23
13 6 17
13 7 23
13 8 45
13 9 14
13 10 55
13 11 64
13 12 58
14 0 26
14 1 47
14 2 30
14 3 58
14 4 47
14 5 37
14 6 12
14 7 32
14 8 48
14 9 67
14 10 34
14 11 10
14 12 65
14 13 64
15 0 33
15 1 4
15 2 31
15 3 65
15 4 36
15 5 55
15 6 31
15 7 18
15 8 68
15 9 30
15 10 1
15 11 58
15 12 27
15 13 23
15 14 42
16 0 52
16 1 56
16 2 5
16 3 61
16 4 16
16 5 24
16 6 29
16 7 27
16 8 49
16 9 65
16 10 1
16 11 36
16 12 45
16 13 59
16 14 30
16 15 49
17 0 38
17 1 45
17 2 43
17 3 65
17 4 61
17 5 18
17 6 2
17 7 21
17 8 51
17 9 61
17 10 46
17 11 24
17 12 12
17 13 36
17 14 21
17 15 22
17 16 63
18 0 19
18 1 14
18 2 40
18 3 52
18 4 4
18 5 9
18 6 38
18 7 44
18 8 6
18 9 58
18 10 32
18 11 37
18 12 32
18 13 62
18 14 24
18 15 30
18 16 45
18 17 56
19 0 11
19 1 8
19 2 27
19 3 39
19 4 4
19 5 32
19 6 66
19 7 25
19 8 11
19 9 49
19 10 23
19 11 1
19 12 18
19 13 34
19 14 45
19 15 1
19 16 33
19 17 55
19 18 30
20 0 51
20 1 37
20 2 33
20 3 4
20 4 5
20 5 34
20 6 23
20 7 34
20 8 5
20 9 66
20 10 28
20 11 49
20 12 9
20 13 62
20 14 51
20 15 47
20 16 20
20 17 8
20 18 58
20 19 7
21 0 48
21 1 21
21 2 48
21 3 42
21 4 39
21 5 64
21 6 50
21 7 40
21 8 58
21 9 64
21 10 33
21 11 7
21 12 57
21 13 68
21 14 50
21 15 41
21 16 4
21 17 10
21 18 10
21 19 20
21 20 22
22 0 45
22 1 66
22 2 24
22 3 63
22 4 57
22 5 16
22 6 33
22 7 7
22 8 42
22 9 26
22 10 27
22 11 22
22 12 48
22 13 33
22 14 14
22 15 18
22 16 21
22 17 20
22 18 59
22 19 13
22 20 40
22 21 62
23 0 9
23 1 14
23 2 55
23 3 49
23 4 45
23 5 55
23 6 26
23 7 61
23 8 15
23 9 26
23 10 36
23 11 54
23 12 12
23 13 57
23 14 14
23 15 47
23 16 44
23 17 20
23 18 26
23 19 1
23 20 4
23 21 49
23 22 9
24 0 63
24 1 66
24 2 61
24 3 51
24 4 47
24 5 29
24 6 62
24 7 8
24 8 38
24 9 8
24 10 19
24 11 64
24 12 63
24 13 14
24 14 26
24 15 36
24 16 53
24 17 40
24 18 49
24 19 32
24 20 4
24 21 60
24 22 7
24 23 61
25 0 22
25 1 32
25 2 68
25 3 55
25 4 43
25 5 24
25 6 42
25 7 12
25 8 58
25 9 46
25 10 13
25 11 65
25 12 43
25 13 15
25 14 51
25 15 19
25 16 48
25 17 4
25 18 35
25 19 28
25 20 29
25 21 17
25 22 23
25 23 14
25 24 40
26 0 40
26 1 64
26 2 9
26 3 62
26 4 9
26 5 5
26 6 21
26 7 56
26 8 38
26 9 43
26 10 51
26 11 26
26 12 31
26 13 31
26 14 13
26 15 30
26 16 60
26 17 14
26 18 53
26 19 36
26 20 7
26 21 49
26 22 55
26 23 56
26 24 10
26 25 56
27 0 12
27 1 22
27 2 46
27 3 3
27 4 12
27 5 15
27 6 8
27 7 12
27 8 58
27 9 58
27 10 32
27 11 37
27 12 11
27 13 55
27 14 53
27 15 15
27 16 32
27 17 7
27 18 30
27 19 47
27 20 5
27 21 41
27 22 57
27 23 51
27 24 15
27 25 56
27 26 50
28 0 36
28 1 15
28 2 67
28 3 59
28 4 65
28 5 2
28 6 5
28 7 10
28 8 12
28 9 17
28 10 67
28 11 53
28 12 34
28 13 35
28 14 7
28 15 12
28 16 12
28 17 37
28 18 10
28 19 8
28 20 55
28 21 33
28 22 54
28 23 7
28 24 20
28 25 22
28 26 29
28 27 30
29 0 56
29 1 19
29 2 27
29 3 37
29 4 63
29 5 58
29 6 19
29 7 48
29 8 63
29 9 32
29 10 68
29 11 4
29 12 5
29 13 19
29 14 3
29 15 50
29 16 27
29 17 31
29 18 6
29 19 17
29 20 65
29 21 49
29 22 34
29 23 41
29 24 65
29 25 38
29 26 62
29 27 60
29 28 7
30 0 57
30 1 36
30 2 6
30 3 63
30 4 61
30 5 2
30 6 38
30 7 12
30 8 43
30 9 15
30 10 14
30 11 27
30 12 46
30 13 41
30 14 29
30 15 13
30 16 66
30 17 61
30 18 42
30 19 3
30 20 28
30 21 52
30 22 18
30 23 35
30 24 6
30 25 40
30 26 15
30 27 5
30 28 35
30 29 58
31 0 54
31 1 17
31 2 58
31 3 37
31 4 44
31 5 38
31 6 55
31 7 52
31 8 26
31 9 28
31 10 9
31 11 8
31 12 53
31 13 6
31 14 26
31 15 1
31 16 51
31 17 30
31 18 56
31 19 42
31 20 30
31 21 57
31 22 27
31 23 6
31 24 20
31 25 40
31 26 3
31 27 45
31 28 56
31 29 55
31 30 14
32 0 24
32 1 25
32 2 38
32 3 58
32 4 31
32 5 17
32 6 40
32 7 36
32 8 20
32 9 3
32 10 4
32 11 22
32 12 37
32 13 46
32 14 16
32 15 54
32 16 28
32 17 68
32 18 45
32 19 3
32 20 31
32 21 34
32 22 49
32 23 41
32 24 28
32 25 56
32 26 28
32 27 62
32 28 64
32 29 1
32 30 36
32 31 27
33 0 59
33 1 30
33 2 65
33 3 34
33 4 3
33 5 22
33 6 44
33 7 12
33 8 29
33 9 63
33 10 19
33 11 42
33 12 45
33 13 59
33 14 61
33 15 32
33 16 27
33 17 29
33 18 65
33 19 30
33 20 5
33 21 21
33 22 43
33 23 23
33 24 55
33 25 43
33 26 10
33 27 60
33 28 65
33 29 6
33 30 43
33 31 46
33 32 68
34 0 13
34 1 60
34 2 34
34 3 18
34 4 30
34 5 38
34 6 29
34 7 30
34 8 46
34 9 21
34 10 47
34 11 49
34 12 63
34 13 31
34 14 16
34 15 28
34 16 38
34 17 14
34 18 24
34 19 5
34 20 31
34 21 60
34 22 61
34 23 43
34 24 48
34 25 16
34 26 57
34 27 65
34 28 62
34 29 5
34 30 24
34 31 60
34 32 66
34 33 46
35 0 35
35 1 46
35 2 15
35 3 51
35 4 30
35 5 37
35 6 9
35 7 64
35 8 27
35 9 27
35 10 66
35 11 67
35 12 7
35 13 9
35 14 3
35 15 24
35 16 34
35 17 23
35 18 37
35 19 39
35 20 32
35 21 53
35 22 12
35 23 58
35 24 25
35 25 28
35 26 56
35 27 43
35 28 26
35 29 41
35 30 14
35 31 1
35 32 6
35 33 58
35 34 14
36 0 43
36 1 48
36 2 15
36 3 12
36 4 56
36 5 48
36 6 15
36 7 37
36 8 43
36 9 13
36 10 63
36 11 41
36 12 59
36 13 66
36 14 31
36 15 8
36 16 3
36 17 6
36 18 11
36 19 11
36 20 22
36 21 36
36 22 20
36 23 37
36 24 30
36 25 16
36 26 44
36 27 24
36 28 21
36 29 38
36 30 51
36 31 60
36 32 1
36 33 66
36 34 45
36 35 46
37 0 1
37 1 40
37 2 67
37 3 37
37 4 6
37 5 41
37 6 13
37 7 61
37 8 12
37 9 5
37 10 8
37 11 34
37 12 14
37 13 33
37 14 8
37 15 53
37 16 32
37 17 63
37 18 37
37 19 7
37 20 21
37 21 58
37 22 13
37 23 52
37 24 5
37 25 62
37 26 11
37 27 29
37 28 34
37 29 14
37 30 12
37 31 27
37 32 16
37 33 63
37 34 11
37 35 8
37 36 60
38 0 21
38 1 56
38 2 31
38 3 3
38 4 15
38 5 38
38 6 51
38 7 66
38 8 2
38 9 55
38 10 61
38 11 4
38 12 32
38 13 33
38 14 52
38 15 12
38 16 36
38 17 43
38 18 43
38 19 27
38 20 51
38 21 6
38 22 51
38 23 66
38 24 27
38 25 42
38 26 60
38 27 28
38 28 29
38 29 17
38 30 39
38 31 65
38 32 10
38 33 36
38 34 39
38 35 63
38 36 62
38 37 63
39 0 40
39 1 47
39 2 42
39 3 39
39 4 15
39 5 15
39 6 25
39 7 14
39 8 57
39 9 34
39 10 56
39 11 65
39 12 57
39 13 18
39 14 12
39 15 12
39 16 23
39 17 57
39 18 38
39 19 50
39 20 27
39 21 65
39 22 35
39 23 19
39 24 16
39 25 61
39 26 41
39 27 26
39 28 15
39 29 34
39 30 40
39 31 47
39 32 16
39 33 38
39 34 39
39 35 30
39 36 2
39 37 55
39 38 67
40 0 68
40 1 47
40 2 44
40 3 28
40 4 5
40 5 62
40 6 5
40 7 47
40 8 5
40 9 10
40 10 43
40 11 41
40 12 43
40 13 52
40 14 18
40 15 16
40 16 11
40 17 32
40 18 31
40 19 56
40 20 5
40 21 64
40 22 64
40 23 36
40 24 3
40 25 25
40 26 65
40 27 40
40 28 31
40 29 15
40 30 58
40 31 53
40 32 49
40 33 41
40 34 23
40 35 7
40 36 24
40 37 61
40 38 64
40 39 6
